(set-info :smt-lib-version 2.6)
(set-info :category "crafted")
(set-logic QF_FFA)
(define-sort FF0 () (_ FiniteField 52435875175126190479447740508185965837690552500527637822603658699938581184513))
(declare-fun return_n10_alt () FF0)
(declare-fun x11_n3_alt () FF0)
(declare-fun mul_n22_alt () FF0)
(declare-fun x10_n5_alt () FF0)
(declare-fun mul_n21_alt () FF0)
(declare-fun x9_n12_alt () FF0)
(declare-fun mul_n20_alt () FF0)
(declare-fun x8_n1_alt () FF0)
(declare-fun mul_n19_alt () FF0)
(declare-fun x7_n7_alt () FF0)
(declare-fun mul_n18_alt () FF0)
(declare-fun mul_n17_alt () FF0)
(declare-fun x5_n0_alt () FF0)
(declare-fun mul_n16_alt () FF0)
(declare-fun x4_n2_alt () FF0)
(declare-fun mul_n15_alt () FF0)
(declare-fun x3_n9_alt () FF0)
(declare-fun mul_n14_alt () FF0)
(declare-fun x2_n11_alt () FF0)
(declare-fun mul_n13_alt () FF0)
(declare-fun x1_n4_alt () FF0)
(declare-fun x0_n6_alt () FF0)
(declare-fun return_n10 () FF0)
(declare-fun x11_n3 () FF0)
(declare-fun mul_n22 () FF0)
(declare-fun x10_n5 () FF0)
(declare-fun mul_n21 () FF0)
(declare-fun x9_n12 () FF0)
(declare-fun mul_n20 () FF0)
(declare-fun x8_n1 () FF0)
(declare-fun mul_n19 () FF0)
(declare-fun x7_n7 () FF0)
(declare-fun mul_n18 () FF0)
(declare-fun mul_n17 () FF0)
(declare-fun x5_n0 () FF0)
(declare-fun mul_n16 () FF0)
(declare-fun x4_n2 () FF0)
(declare-fun mul_n15 () FF0)
(declare-fun x3_n9 () FF0)
(declare-fun mul_n14 () FF0)
(declare-fun x2_n11 () FF0)
(declare-fun mul_n13 () FF0)
(declare-fun x1_n4 () FF0)
(declare-fun x0_n6 () FF0)
(declare-fun x6_n8_alt () FF0)
(declare-fun x6_n8 () FF0)
(assert 
  (let ((let0 (as ff1 FF0)))
  (let ((let1 (as ff52435875175126190479447740508185965837690552500527637822603658699938581184512 FF0)))
  (let ((let2 return_n10_alt))
  (let ((let3 (ff.mul let2 let1)))
  (let ((let4 (ff.add let3 let0)))
  (let ((let5 x11_n3_alt))
  (let ((let6 (ff.mul let5 let1)))
  (let ((let7 (ff.add let6 let0)))
  (let ((let8 mul_n22_alt))
  (let ((let9 (ff.mul let8 let7)))
  (let ((let10 (= let9 let4)))
  (let ((let11 x10_n5_alt))
  (let ((let12 (ff.mul let11 let1)))
  (let ((let13 (ff.add let12 let0)))
  (let ((let14 mul_n21_alt))
  (let ((let15 (ff.mul let14 let13)))
  (let ((let16 (= let15 let8)))
  (let ((let17 x9_n12_alt))
  (let ((let18 (ff.mul let17 let1)))
  (let ((let19 (ff.add let18 let0)))
  (let ((let20 mul_n20_alt))
  (let ((let21 (ff.mul let20 let19)))
  (let ((let22 (= let21 let14)))
  (let ((let23 x8_n1_alt))
  (let ((let24 (ff.mul let23 let1)))
  (let ((let25 (ff.add let24 let0)))
  (let ((let26 mul_n19_alt))
  (let ((let27 (ff.mul let26 let25)))
  (let ((let28 (= let27 let20)))
  (let ((let29 x7_n7_alt))
  (let ((let30 (ff.mul let29 let1)))
  (let ((let31 (ff.add let30 let0)))
  (let ((let32 mul_n18_alt))
  (let ((let33 (ff.mul let32 let31)))
  (let ((let34 (= let33 let26)))
  (let ((let35 mul_n17_alt))
  (let ((let36 x5_n0_alt))
  (let ((let37 (ff.mul let36 let1)))
  (let ((let38 (ff.add let37 let0)))
  (let ((let39 mul_n16_alt))
  (let ((let40 (ff.mul let39 let38)))
  (let ((let41 (= let40 let35)))
  (let ((let42 x4_n2_alt))
  (let ((let43 (ff.mul let42 let1)))
  (let ((let44 (ff.add let43 let0)))
  (let ((let45 mul_n15_alt))
  (let ((let46 (ff.mul let45 let44)))
  (let ((let47 (= let46 let39)))
  (let ((let48 x3_n9_alt))
  (let ((let49 (ff.mul let48 let1)))
  (let ((let50 (ff.add let49 let0)))
  (let ((let51 mul_n14_alt))
  (let ((let52 (ff.mul let51 let50)))
  (let ((let53 (= let52 let45)))
  (let ((let54 x2_n11_alt))
  (let ((let55 (ff.mul let54 let1)))
  (let ((let56 (ff.add let55 let0)))
  (let ((let57 mul_n13_alt))
  (let ((let58 (ff.mul let57 let56)))
  (let ((let59 (= let58 let51)))
  (let ((let60 x1_n4_alt))
  (let ((let61 (ff.mul let60 let1)))
  (let ((let62 (ff.add let61 let0)))
  (let ((let63 x0_n6_alt))
  (let ((let64 (ff.mul let63 let1)))
  (let ((let65 (ff.add let64 let0)))
  (let ((let66 (ff.mul let65 let62)))
  (let ((let67 (= let66 let57)))
  (let ((let68 (and let67 let59 let53 let47 let41 let34 let28 let22 let16 let10)))
  (let ((let69 return_n10))
  (let ((let70 (ff.mul let69 let1)))
  (let ((let71 (ff.add let70 let0)))
  (let ((let72 x11_n3))
  (let ((let73 (ff.mul let72 let1)))
  (let ((let74 (ff.add let73 let0)))
  (let ((let75 mul_n22))
  (let ((let76 (ff.mul let75 let74)))
  (let ((let77 (= let76 let71)))
  (let ((let78 x10_n5))
  (let ((let79 (ff.mul let78 let1)))
  (let ((let80 (ff.add let79 let0)))
  (let ((let81 mul_n21))
  (let ((let82 (ff.mul let81 let80)))
  (let ((let83 (= let82 let75)))
  (let ((let84 x9_n12))
  (let ((let85 (ff.mul let84 let1)))
  (let ((let86 (ff.add let85 let0)))
  (let ((let87 mul_n20))
  (let ((let88 (ff.mul let87 let86)))
  (let ((let89 (= let88 let81)))
  (let ((let90 x8_n1))
  (let ((let91 (ff.mul let90 let1)))
  (let ((let92 (ff.add let91 let0)))
  (let ((let93 mul_n19))
  (let ((let94 (ff.mul let93 let92)))
  (let ((let95 (= let94 let87)))
  (let ((let96 x7_n7))
  (let ((let97 (ff.mul let96 let1)))
  (let ((let98 (ff.add let97 let0)))
  (let ((let99 mul_n18))
  (let ((let100 (ff.mul let99 let98)))
  (let ((let101 (= let100 let93)))
  (let ((let102 mul_n17))
  (let ((let103 x5_n0))
  (let ((let104 (ff.mul let103 let1)))
  (let ((let105 (ff.add let104 let0)))
  (let ((let106 mul_n16))
  (let ((let107 (ff.mul let106 let105)))
  (let ((let108 (= let107 let102)))
  (let ((let109 x4_n2))
  (let ((let110 (ff.mul let109 let1)))
  (let ((let111 (ff.add let110 let0)))
  (let ((let112 mul_n15))
  (let ((let113 (ff.mul let112 let111)))
  (let ((let114 (= let113 let106)))
  (let ((let115 x3_n9))
  (let ((let116 (ff.mul let115 let1)))
  (let ((let117 (ff.add let116 let0)))
  (let ((let118 mul_n14))
  (let ((let119 (ff.mul let118 let117)))
  (let ((let120 (= let119 let112)))
  (let ((let121 x2_n11))
  (let ((let122 (ff.mul let121 let1)))
  (let ((let123 (ff.add let122 let0)))
  (let ((let124 mul_n13))
  (let ((let125 (ff.mul let124 let123)))
  (let ((let126 (= let125 let118)))
  (let ((let127 x1_n4))
  (let ((let128 (ff.mul let127 let1)))
  (let ((let129 (ff.add let128 let0)))
  (let ((let130 x0_n6))
  (let ((let131 (ff.mul let130 let1)))
  (let ((let132 (ff.add let131 let0)))
  (let ((let133 (ff.mul let132 let129)))
  (let ((let134 (= let133 let124)))
  (let ((let135 (and let134 let126 let120 let114 let108 let101 let95 let89 let83 let77)))
  (let ((let136 (= let69 let2)))
  (let ((let137 (not let136)))
  (let ((let138 (= let103 let36)))
  (let ((let139 (= let121 let54)))
  (let ((let140 (= let72 let5)))
  (let ((let141 (= let90 let23)))
  (let ((let142 (= let84 let17)))
  (let ((let143 x6_n8_alt))
  (let ((let144 x6_n8))
  (let ((let145 (= let144 let143)))
  (let ((let146 (= let127 let60)))
  (let ((let147 (= let96 let29)))
  (let ((let148 (= let109 let42)))
  (let ((let149 (= let115 let48)))
  (let ((let150 (= let78 let11)))
  (let ((let151 (= let130 let63)))
  (let ((let152 (and let151 let150 let149 let148 let147 let146 let145 let142 let141 let140 let139 let138)))
  (let ((let153 (and let152 let137 let135 let68)))
  let153
))))))))))))))))))))))))))))))))))))))))))))))))))))))))))))))))))))))))))))))))))))))))))))))))))))))))))))))))))))))))))))))))))))))))))))))))))))))))))
)
(check-sat)
